&INPUTPH
    tr2_ph = 1.0d-14,
    prefix = 'BaTiO3_defect',
    outdir = './tmp',
    fildyn = 'BaTiO3_dyn',
    fildrho = 'BaTiO3_rho',
    ldisp = .true.,
    nq1 = 4, nq2 = 4, nq3 = 4,  ! q-point mesh for phonons
/
